# Objective value = 2.9312749409534615e+02
x[0] 0
x[1] 0
x[2] 1
x[3] 0
x[4] 1
x[5] 1
x[6] 1
x[7] 1
x[8] 0
x[9] 1
x[10] 0
x[11] 1
x[12] 1
x[13] 0
x[14] 0
x[15] 1
x[16] 1
x[17] 1
x[18] 1
x[19] 0
x[20] 0
x[21] 1
x[22] 1
x[23] 1
x[24] 0
x[25] 1
x[26] 1
x[27] 0
x[28] 0
x[29] 0
x[30] 1
x[31] 1
x[32] 0
x[33] 0
x[34] 0
x[35] 1
x[36] 0
x[37] 0
x[38] 1
x[39] 0
x[40] 1
x[41] 0
x[42] 1
x[43] 1
x[44] 1
x[45] 0
x[46] 1
x[47] 1
x[48] 1
x[49] 0
x[50] 1
x[51] 1
x[52] 1
x[53] 0
x[54] 1
x[55] 1
x[56] 0
x[57] 1
x[58] 0
x[59] 1
x[60] 0
x[61] 0
x[62] 0
x[63] 1
x[64] 1
x[65] 0
x[66] 1
x[67] 0
x[68] 1
x[69] 1
x[70] 1
x[71] 1
x[72] 1
x[73] 1
x[74] 0
x[75] 0
x[76] 0
x[77] 0
x[78] 1
x[79] 1
x[80] 0
x[81] 0
x[82] 1
x[83] 1
x[84] 0
x[85] 0
x[86] 0
x[87] 1
x[88] 1
x[89] 0
x[90] 1
x[91] 0
x[92] 0
x[93] 1
x[94] 0
x[95] 1
x[96] 1
x[97] 1
x[98] 1
x[99] 0
x[100] 0
x[101] 1
x[102] 0
x[103] 0
x[104] 0
x[105] 0
x[106] 0
x[107] 1
x[108] 0
x[109] 0
x[110] 1
x[111] 0
x[112] 1
x[113] 0
x[114] 1
x[115] 1
x[116] 1
x[117] 1
x[118] 0
x[119] 0
x[120] 1
x[121] 0
x[122] 1
x[123] 1
x[124] 1
x[125] 1
x[126] 1
x[127] 0
x[128] 1
x[129] 0
x[130] 0
x[131] 0
x[132] 1
x[133] 1
x[134] 1
x[135] 1
x[136] 0
x[137] 1
x[138] 0
x[139] 1
x[140] 0
x[141] 0
x[142] 1
x[143] 0
x[144] 0
x[145] 0
x[146] 0
x[147] 1
x[148] 1
x[149] 1
x[150] 0
x[151] 0
x[152] 1
x[153] 0
x[154] 1
x[155] 0
x[156] 0
x[157] 0
x[158] 0
x[159] 1
x[160] 0
x[161] 0
x[162] 0
x[163] 1
x[164] 0
x[165] 1
x[166] 1
x[167] 0
x[168] 1
x[169] 1
x[170] 1
x[171] 0
x[172] 1
x[173] 1
x[174] 1
x[175] 1
x[176] 1
x[177] 0
x[178] 1
x[179] 1
x[180] 0
x[181] 0
x[182] 0
x[183] 1
x[184] 0
x[185] 0
x[186] 1
x[187] 1
x[188] 1
x[189] 1
x[190] 0
x[191] 0
x[192] 0
x[193] 1
x[194] 1
x[195] 0
x[196] 0
x[197] 1
x[198] 1
x[199] 1
x[200] 1
x[201] 1
x[202] 1
x[203] 1
x[204] 1
x[205] 1
x[206] 1
x[207] 0
x[208] 1
x[209] 0
x[210] 0
x[211] 1
x[212] 0
x[213] 0
x[214] 1
x[215] 0
x[216] 0
x[217] 1
x[218] 1
x[219] 1
x[220] 0
x[221] 1
x[222] 0
x[223] 0
x[224] 0
x[225] 1
x[226] 1
x[227] 0
x[228] 0
x[229] 0
x[230] 0
x[231] 0
x[232] 0
x[233] 1
x[234] 0
x[235] 0
x[236] 0
x[237] 1
x[238] 0
x[239] 0
x[240] 0
x[241] 1
x[242] 1
x[243] 0
x[244] 0
x[245] 1
x[246] 0
x[247] 0
x[248] 1
x[249] 1
x[250] 1
x[251] 0
x[252] 0
x[253] 1
x[254] 0
x[255] 0
x[256] 0
x[257] 1
x[258] 0
x[259] 0
x[260] 0
x[261] 1
x[262] 1
x[263] 1
x[264] 1
x[265] 0
x[266] 1
x[267] 0
x[268] 1
x[269] 0
x[270] 0
x[271] 1
x[272] 1
x[273] 0
x[274] 0
x[275] 1
x[276] 1
x[277] 1
x[278] 1
x[279] 1
x[280] 1
x[281] 1
x[282] 1
x[283] 0
x[284] 0
x[285] 0
x[286] 0
x[287] 0
x[288] 0
x[289] 1
x[290] 0
x[291] 1
x[292] 1
x[293] 0
x[294] 0
x[295] 1
x[296] 0
x[297] 0
x[298] 0
x[299] 0
x[300] 0
x[301] 1
x[302] 0
x[303] 1
x[304] 0
x[305] 1
x[306] 0
x[307] 0
x[308] 0
x[309] 0
x[310] 1
x[311] 1
x[312] 0
x[313] 1
x[314] 1
x[315] 1
x[316] 1
x[317] 1
x[318] 1
x[319] 0
x[320] 1
x[321] 0
x[322] 0
x[323] 0
x[324] 0
x[325] 1
x[326] 1
x[327] 1
x[328] 0
x[329] 1
x[330] 1
x[331] 1
x[332] 0
x[333] 1
x[334] 0
x[335] 0
x[336] 0
x[337] 1
x[338] 0
x[339] 1
x[340] 0
x[341] 1
x[342] 1
x[343] 1
x[344] 1
x[345] 1
x[346] 0
x[347] 0
x[348] 0
x[349] 0
x[350] 0
x[351] 0
x[352] 0
x[353] 0
x[354] 1
x[355] 0
x[356] 1
x[357] 0
x[358] 0
x[359] 1
x[360] 0
x[361] 0
x[362] 1
x[363] 0
x[364] 0
x[365] 1
x[366] 1
x[367] 1
x[368] 1
x[369] 1
x[370] 1
x[371] 1
x[372] 1
x[373] 1
x[374] 0
x[375] 1
x[376] 1
x[377] 0
x[378] 0
x[379] 1
x[380] 0
x[381] 1
x[382] 0
x[383] 1
x[384] 1
x[385] 0
x[386] 0
x[387] 0
x[388] 0
x[389] 0
x[390] 1
x[391] 0
x[392] 0
x[393] 1
x[394] 0
x[395] 1
x[396] 0
x[397] 1
x[398] 0
x[399] 1
x[400] 0
x[401] 0
x[402] 1
x[403] 0
x[404] 0
x[405] 1
x[406] 1
x[407] 1
x[408] 1
x[409] 1
x[410] 1
x[411] 1
x[412] 0
x[413] 0
x[414] 0
x[415] 1
x[416] 0
x[417] 0
x[418] 0
x[419] 1
x[420] 0
x[421] 1
x[422] 1
x[423] 0
x[424] 0
x[425] 0
x[426] 0
x[427] 0
x[428] 1
x[429] 1
x[430] 1
x[431] 1
x[432] 0
x[433] 0
x[434] 0
x[435] 0
x[436] 1
x[437] 0
x[438] 0
x[439] 0
x[440] 0
x[441] 0
x[442] 1
x[443] 0
x[444] 1
x[445] 0
x[446] 1
x[447] 1
x[448] 0
x[449] 0
x[450] 1
x[451] 1
x[452] 1
x[453] 1
x[454] 0
x[455] 0
x[456] 0
x[457] 1
x[458] 0
x[459] 1
x[460] 0
x[461] 1
x[462] 0
x[463] 1
x[464] 1
x[465] 1
x[466] 0
x[467] 1
x[468] 0
x[469] 0
x[470] 1
x[471] 1
x[472] 1
x[473] 0
x[474] 0
x[475] 1
x[476] 0
x[477] 1
x[478] 0
x[479] 0
x[480] 1
x[481] 1
x[482] 1
x[483] 1
x[484] 0
x[485] 1
x[486] 0
x[487] 1
x[488] 1
x[489] 0
x[490] 0
x[491] 1
x[492] 0
x[493] 0
x[494] 1
x[495] 1
x[496] 0
x[497] 0
x[498] 0
x[499] 1
x[500] 1
x[501] 0
x[502] 1
x[503] 1
x[504] 1
x[505] 1
x[506] 1
x[507] 0
x[508] 1
x[509] 0
x[510] 1
x[511] 0
x[512] 0
x[513] 1
x[514] 1
x[515] 0
x[516] 1
x[517] 0
x[518] 0
x[519] 1
x[520] 1
x[521] 1
x[522] 0
x[523] 0
x[524] 0
x[525] 0
x[526] 0
x[527] 1
x[528] 1
x[529] 1
x[530] 1
x[531] 0
x[532] 1
x[533] 0
x[534] 0
x[535] 0
x[536] 0
x[537] 1
x[538] 0
x[539] 0
x[540] 0
x[541] 1
x[542] 1
x[543] 0
x[544] 1
x[545] 1
x[546] 0
x[547] 0
x[548] 0
x[549] 1
x[550] 0
x[551] 0
x[552] 1
x[553] 0
x[554] 1
x[555] 1
x[556] 0
x[557] 0
x[558] 1
x[559] 1
x[560] 1
x[561] 1
x[562] 1
x[563] 1
x[564] 0
x[565] 0
x[566] 0
x[567] 0
x[568] 0
x[569] 0
x[570] 1
x[571] 0
x[572] 0
x[573] 0
x[574] 1
x[575] 0
x[576] 0
x[577] 0
x[578] 0
x[579] 1
x[580] 0
x[581] 1
x[582] 1
x[583] 0
x[584] 0
x[585] 0
x[586] 1
x[587] 0
x[588] 1
x[589] 0
x[590] 0
x[591] 0
x[592] 0
x[593] 1
x[594] 1
x[595] 1
x[596] 1
x[597] 1
x[598] 1
x[599] 0
x[600] 1
x[601] 1
x[602] 1
x[603] 1
x[604] 1
x[605] 1
x[606] 0
x[607] 0
x[608] 0
x[609] 1
x[610] 1
x[611] 0
x[612] 1
x[613] 0
x[614] 0
x[615] 1
x[616] 1
x[617] 0
x[618] 1
x[619] 1
x[620] 0
x[621] 0
x[622] 0
x[623] 1
x[624] 1
x[625] 0
x[626] 1
x[627] 1
x[628] 0
x[629] 0
x[630] 0
x[631] 0
x[632] 0
x[633] 0
x[634] 0
x[635] 0
x[636] 1
x[637] 1
x[638] 0
x[639] 1
x[640] 1
x[641] 0
x[642] 1
x[643] 0
x[644] 1
x[645] 0
x[646] 1
x[647] 0
x[648] 1
x[649] 0
x[650] 1
x[651] 0
x[652] 1
x[653] 1
x[654] 0
x[655] 0
x[656] 1
x[657] 1
x[658] 1
x[659] 1
x[660] 1
x[661] 1
x[662] 1
x[663] 0
x[664] 0
x[665] 0
x[666] 1
x[667] 0
x[668] 1
x[669] 0
x[670] 0
x[671] 0
x[672] 1
x[673] 0
x[674] 1
x[675] 0
x[676] 1
x[677] 1
x[678] 0
x[679] 0
x[680] 0
x[681] 0
x[682] 0
x[683] 1
x[684] 0
x[685] 0
x[686] 1
x[687] 0
x[688] 0
x[689] 1
x[690] 1
x[691] 0
x[692] 1
x[693] 1
x[694] 1
x[695] 1
x[696] 1
x[697] 0
x[698] 1
x[699] 1
x[700] 0
x[701] 1
x[702] 0
x[703] 0
x[704] 1
x[705] 1
x[706] 0
x[707] 0
x[708] 1
x[709] 0
x[710] 1
x[711] 0
x[712] 1
x[713] 1
x[714] 1
x[715] 1
x[716] 1
x[717] 1
x[718] 0
x[719] 1
x[720] 0
x[721] 0
x[722] 1
x[723] 0
x[724] 0
x[725] 0
x[726] 0
x[727] 0
x[728] 0
x[729] 0
x[730] 0
x[731] 0
x[732] 1
x[733] 0
x[734] 0
x[735] 0
x[736] 1
x[737] 0
x[738] 1
x[739] 0
x[740] 0
x[741] 1
x[742] 0
x[743] 0
x[744] 1
x[745] 0
x[746] 0
x[747] 0
x[748] 1
x[749] 1
x[750] 1
x[751] 0
x[752] 0
x[753] 1
x[754] 1
x[755] 0
x[756] 0
x[757] 0
x[758] 1
x[759] 0
x[760] 1
x[761] 1
x[762] 0
x[763] 1
x[764] 1
x[765] 0
x[766] 0
x[767] 0
x[768] 0
x[769] 1
x[770] 0
x[771] 0
x[772] 0
x[773] 0
x[774] 1
x[775] 1
x[776] 0
x[777] 0
x[778] 0
x[779] 1
x[780] 0
x[781] 1
x[782] 0
x[783] 1
x[784] 0
x[785] 1
x[786] 0
x[787] 1
x[788] 0
x[789] 1
x[790] 1
x[791] 1
x[792] 1
x[793] 1
x[794] 0
x[795] 1
x[796] 0
x[797] 1
x[798] 1
x[799] 0
x[800] 1
x[801] 0
x[802] 0
x[803] 1
x[804] 1
x[805] 0
x[806] 1
x[807] 1
x[808] 0
x[809] 0
x[810] 1
x[811] 0
x[812] 1
x[813] 0
x[814] 1
x[815] 1
x[816] 1
x[817] 0
x[818] 1
x[819] 0
x[820] 0
x[821] 1
x[822] 0
x[823] 0
x[824] 0
x[825] 1
x[826] 0
x[827] 0
x[828] 0
x[829] 0
x[830] 1
x[831] 1
x[832] 0
x[833] 0
x[834] 1
x[835] 1
x[836] 0
x[837] 0
x[838] 1
x[839] 1
x[840] 1
x[841] 1
x[842] 1
x[843] 0
x[844] 0
x[845] 0
x[846] 1
x[847] 0
x[848] 0
x[849] 1
x[850] 0
x[851] 0
x[852] 0
x[853] 1
x[854] 0
x[855] 1
x[856] 0
x[857] 1
x[858] 0
x[859] 1
x[860] 1
x[861] 1
x[862] 0
x[863] 0
x[864] 0
x[865] 0
x[866] 0
x[867] 0
x[868] 0
x[869] 0
x[870] 0
x[871] 1
x[872] 1
x[873] 1
x[874] 0
x[875] 1
x[876] 0
x[877] 0
x[878] 1
x[879] 1
x[880] 1
x[881] 0
x[882] 1
x[883] 0
x[884] 0
x[885] 0
x[886] 1
x[887] 1
x[888] 0
x[889] 1
x[890] 1
x[891] 0
x[892] 1
x[893] 0
x[894] 1
x[895] 1
x[896] 0
x[897] 1
x[898] 0
x[899] 1
x[900] 0
x[901] 1
x[902] 1
x[903] 0
x[904] 0
x[905] 0
x[906] 1
x[907] 0
x[908] 0
x[909] 1
x[910] 1
x[911] 0
x[912] 1
x[913] 0
x[914] 0
x[915] 1
x[916] 0
x[917] 0
x[918] 1
x[919] 1
x[920] 0
x[921] 0
x[922] 1
x[923] 0
x[924] 1
x[925] 0
x[926] 1
x[927] 1
x[928] 0
x[929] 0
x[930] 0
x[931] 0
x[932] 0
x[933] 1
x[934] 1
x[935] 0
x[936] 0
x[937] 0
x[938] 1
x[939] 1
x[940] 1
x[941] 0
x[942] 0
x[943] 0
x[944] 1
x[945] 1
x[946] 0
x[947] 1
x[948] 1
x[949] 0
x[950] 1
x[951] 1
x[952] 0
x[953] 0
x[954] 1
x[955] 0
x[956] 1
x[957] 1
x[958] 1
x[959] 1
x[960] 0
x[961] 0
x[962] 1
x[963] 1
x[964] 0
x[965] 0
x[966] 1
x[967] 1
x[968] 0
x[969] 0
x[970] 0
x[971] 1
x[972] 0
x[973] 0
x[974] 1
x[975] 1
x[976] 0
x[977] 1
x[978] 0
x[979] 0
x[980] 0
x[981] 0
x[982] 1
x[983] 0
x[984] 1
x[985] 0
x[986] 0
x[987] 0
x[988] 1
x[989] 0
x[990] 0
x[991] 1
x[992] 1
x[993] 0
x[994] 1
x[995] 0
x[996] 1
x[997] 1
x[998] 0
x[999] 0
